<?xml version = "1.0" standalone="yes"?>
<!-- This file has been generated by DOcplex version 2.23.222  -->
<CPLEXSolution version="1.0">
 <header
   problemName="CVRP"
   objectiveValue="17731.7"
  />
 <variables>
  <variable name="x_0_2" index="1" value="1.00000"/>
  <variable name="x_0_3" index="2" value="1.00000"/>
  <variable name="x_0_4" index="3" value="1.00000"/>
  <variable name="x_0_6" index="5" value="1.00000"/>
  <variable name="x_0_7" index="6" value="1.00000"/>
  <variable name="x_0_9" index="8" value="1.00000"/>
  <variable name="x_0_13" index="12" value="1.00000"/>
  <variable name="x_0_14" index="13" value="1.00000"/>
  <variable name="x_0_16" index="15" value="1.00000"/>
  <variable name="x_0_17" index="16" value="1.00000"/>
  <variable name="x_0_18" index="17" value="1.00000"/>
  <variable name="x_0_22" index="21" value="1.00000"/>
  <variable name="x_1_23" index="45" value="1.00000"/>
  <variable name="x_2_12" index="57" value="1.00000"/>
  <variable name="x_3_0" index="69" value="1.00000"/>
  <variable name="x_4_1" index="93" value="1.00000"/>
  <variable name="x_5_0" index="115" value="1.00000"/>
  <variable name="x_6_5" index="143" value="1.00000"/>
  <variable name="x_7_19" index="179" value="1.00000"/>
  <variable name="x_8_0" index="184" value="1.00000"/>
  <variable name="x_9_20" index="226" value="1.00000"/>
  <variable name="x_10_0" index="230" value="1.00000"/>
  <variable name="x_11_0" index="253" value="1.00000"/>
  <variable name="x_12_0" index="276" value="1.00000"/>
  <variable name="x_13_0" index="299" value="1.00000"/>
  <variable name="x_14_15" index="336" value="1.00000"/>
  <variable name="x_15_0" index="345" value="1.00000"/>
  <variable name="x_16_8" index="376" value="1.00000"/>
  <variable name="x_17_0" index="391" value="1.00000"/>
  <variable name="x_18_21" index="434" value="1.00000"/>
  <variable name="x_19_11" index="448" value="1.00000"/>
  <variable name="x_20_10" index="470" value="1.00000"/>
  <variable name="x_21_0" index="483" value="1.00000"/>
  <variable name="x_22_0" index="506" value="1.00000"/>
  <variable name="x_23_0" index="529" value="1.00000"/>
  <variable name="u_1" index="552" value="59.00000"/>
  <variable name="u_2" index="553" value="56.00000"/>
  <variable name="u_3" index="554" value="59.00000"/>
  <variable name="u_4" index="555" value="42.00000"/>
  <variable name="u_5" index="556" value="74.00000"/>
  <variable name="u_6" index="557" value="31.00000"/>
  <variable name="u_7" index="558" value="47.00000"/>
  <variable name="u_8" index="559" value="74.00000"/>
  <variable name="u_9" index="560" value="28.00000"/>
  <variable name="u_10" index="561" value="74.00000"/>
  <variable name="u_11" index="562" value="67.00000"/>
  <variable name="u_12" index="563" value="74.00000"/>
  <variable name="u_13" index="564" value="74.00000"/>
  <variable name="u_14" index="565" value="58.00000"/>
  <variable name="u_15" index="566" value="70.00000"/>
  <variable name="u_16" index="567" value="43.00000"/>
  <variable name="u_17" index="568" value="17.00000"/>
  <variable name="u_18" index="569" value="51.00000"/>
  <variable name="u_19" index="570" value="66.00000"/>
  <variable name="u_20" index="571" value="45.00000"/>
  <variable name="u_21" index="572" value="66.00000"/>
  <variable name="u_22" index="573" value="74.00000"/>
  <variable name="u_23" index="574" value="74.00000"/>
 </variables>
</CPLEXSolution>
